(set-info :smt-lib-version 2.6)
(set-logic QF_NIA)
(set-info
  :source |
SMT script generated by Ultimate Automizer [1,2].
Ultimate Automizer is an automatic software verification tool that implements
a new automata-theoretic approach [3].

This SMT script belongs to a set of SMT scripts that was generated by applying
Ultimate Automizer to benchmarks from the SV-COMP 2015 [4,5] which are available 
at [6].

This script does _not_ contain all SMT commands that are used by Ultimate 
Automizer while verifying a program. In order to fulfill the restrictions of
the main track at SMT-COMP this script contains only the commands that are
sufficient to reproduce one single satisfiablity check.

2015-04-30, Matthias Heizmann (heizmann@informatik.uni-freiburg.de)


[1] https://ultimate.informatik.uni-freiburg.de/automizer/
[2] Matthias Heizmann, Daniel Dietsch, Jan Leike, Betim Musa, Andreas Podelski:
Ultimate Automizer with Array Interpolation - (Competition Contribution). 
TACAS 2015: 455-457
[3] Matthias Heizmann, Jochen Hoenicke, Andreas Podelski: Software Model 
Checking for People Who Love Automata. CAV 2013:36-52
[4] Dirk Beyer: Software Verification and Verifiable Witnesses - (Report on 
SV-COMP 2015). TACAS 2015: 401-416
[5] http://sv-comp.sosy-lab.org/2015/
[6] https://svn.sosy-lab.org/software/sv-benchmarks/tags/svcomp15/


Made compatible to SMT-COMP rules by SMTInterpol
|)
(set-info :category "industrial")
(set-info :status unsat)
(declare-fun |main_#t~nondet1_3| () Int)
(declare-fun main_~n~6_4 () Int)
(declare-fun main_~i~6_4 () Int)
(declare-fun main_~sum~6_4 () Int)
(declare-fun main_~i~6_6 () Int)
(declare-fun main_~sum~6_6 () Int)
(declare-fun main_~i~6_8 () Int)
(declare-fun main_~sum~6_8 () Int)
(declare-fun main_~i~6_10 () Int)
(declare-fun main_~sum~6_10 () Int)
(declare-fun main_~i~6_12 () Int)
(declare-fun main_~sum~6_12 () Int)
(declare-fun main_~i~6_14 () Int)
(declare-fun main_~sum~6_14 () Int)
(declare-fun main_~i~6_16 () Int)
(declare-fun main_~sum~6_16 () Int)
(declare-fun main_~i~6_18 () Int)
(declare-fun main_~sum~6_18 () Int)
(declare-fun main_~i~6_20 () Int)
(declare-fun main_~sum~6_20 () Int)
(declare-fun main_~i~6_22 () Int)
(declare-fun main_~sum~6_22 () Int)
(declare-fun main_~i~6_24 () Int)
(declare-fun main_~sum~6_24 () Int)
(declare-fun main_~i~6_26 () Int)
(declare-fun main_~sum~6_26 () Int)
(declare-fun main_~i~6_28 () Int)
(declare-fun main_~sum~6_28 () Int)
(declare-fun main_~i~6_30 () Int)
(declare-fun main_~sum~6_30 () Int)
(declare-fun main_~i~6_32 () Int)
(declare-fun main_~sum~6_32 () Int)
(declare-fun main_~i~6_34 () Int)
(declare-fun main_~sum~6_34 () Int)
(declare-fun main_~i~6_36 () Int)
(declare-fun main_~sum~6_36 () Int)
(declare-fun main_~i~6_38 () Int)
(declare-fun main_~sum~6_38 () Int)
(declare-fun main_~i~6_40 () Int)
(declare-fun main_~sum~6_40 () Int)
(declare-fun main_~i~6_42 () Int)
(declare-fun main_~sum~6_42 () Int)
(declare-fun main_~i~6_44 () Int)
(declare-fun main_~sum~6_44 () Int)
(declare-fun main_~i~6_46 () Int)
(declare-fun main_~sum~6_46 () Int)
(declare-fun main_~i~6_48 () Int)
(declare-fun main_~sum~6_48 () Int)
(declare-fun main_~i~6_50 () Int)
(declare-fun main_~sum~6_50 () Int)
(declare-fun main_~i~6_52 () Int)
(declare-fun main_~sum~6_52 () Int)
(declare-fun main_~i~6_54 () Int)
(declare-fun main_~sum~6_54 () Int)
(declare-fun main_~i~6_56 () Int)
(declare-fun main_~sum~6_56 () Int)
(declare-fun main_~i~6_58 () Int)
(declare-fun main_~sum~6_58 () Int)
(declare-fun main_~i~6_60 () Int)
(declare-fun main_~sum~6_60 () Int)
(declare-fun main_~i~6_62 () Int)
(declare-fun main_~sum~6_62 () Int)
(declare-fun main_~i~6_64 () Int)
(declare-fun main_~sum~6_64 () Int)
(declare-fun main_~i~6_66 () Int)
(declare-fun main_~sum~6_66 () Int)
(declare-fun main_~i~6_68 () Int)
(declare-fun main_~sum~6_68 () Int)
(declare-fun main_~i~6_70 () Int)
(declare-fun main_~sum~6_70 () Int)
(declare-fun main_~i~6_72 () Int)
(declare-fun main_~sum~6_72 () Int)
(declare-fun main_~i~6_74 () Int)
(declare-fun main_~sum~6_74 () Int)
(declare-fun main_~i~6_76 () Int)
(declare-fun main_~sum~6_76 () Int)
(declare-fun main_~i~6_78 () Int)
(declare-fun main_~sum~6_78 () Int)
(declare-fun main_~i~6_80 () Int)
(declare-fun main_~sum~6_80 () Int)
(declare-fun main_~i~6_82 () Int)
(declare-fun main_~sum~6_82 () Int)
(declare-fun main_~i~6_84 () Int)
(declare-fun main_~sum~6_84 () Int)
(declare-fun main_~i~6_86 () Int)
(declare-fun main_~sum~6_86 () Int)
(declare-fun main_~i~6_88 () Int)
(declare-fun main_~sum~6_88 () Int)
(declare-fun main_~i~6_90 () Int)
(declare-fun main_~sum~6_90 () Int)
(declare-fun main_~i~6_92 () Int)
(declare-fun main_~sum~6_92 () Int)
(declare-fun main_~i~6_94 () Int)
(declare-fun main_~sum~6_94 () Int)
(declare-fun main_~i~6_96 () Int)
(declare-fun main_~sum~6_96 () Int)
(declare-fun main_~i~6_98 () Int)
(declare-fun main_~sum~6_98 () Int)
(declare-fun main_~i~6_100 () Int)
(declare-fun main_~sum~6_100 () Int)
(declare-fun main_~i~6_102 () Int)
(declare-fun main_~sum~6_102 () Int)
(declare-fun main_~i~6_104 () Int)
(declare-fun main_~sum~6_104 () Int)
(declare-fun main_~i~6_106 () Int)
(declare-fun main_~sum~6_106 () Int)
(declare-fun main_~i~6_108 () Int)
(declare-fun main_~sum~6_108 () Int)
(declare-fun main_~i~6_110 () Int)
(declare-fun main_~sum~6_110 () Int)
(declare-fun main_~i~6_112 () Int)
(declare-fun main_~sum~6_112 () Int)
(declare-fun main_~i~6_114 () Int)
(declare-fun main_~sum~6_114 () Int)
(declare-fun main_~i~6_116 () Int)
(declare-fun main_~sum~6_116 () Int)
(declare-fun main_~i~6_118 () Int)
(declare-fun main_~sum~6_118 () Int)
(declare-fun main_~i~6_120 () Int)
(declare-fun main_~sum~6_120 () Int)
(declare-fun main_~i~6_122 () Int)
(declare-fun main_~sum~6_122 () Int)
(declare-fun main_~i~6_124 () Int)
(declare-fun main_~sum~6_124 () Int)
(declare-fun main_~i~6_126 () Int)
(declare-fun main_~sum~6_126 () Int)
(declare-fun main_~i~6_128 () Int)
(declare-fun main_~sum~6_128 () Int)
(declare-fun main_~i~6_130 () Int)
(declare-fun main_~sum~6_130 () Int)
(declare-fun main_~i~6_132 () Int)
(declare-fun main_~sum~6_132 () Int)
(declare-fun main_~i~6_134 () Int)
(declare-fun main_~sum~6_134 () Int)
(declare-fun main_~i~6_136 () Int)
(declare-fun main_~sum~6_136 () Int)
(declare-fun main_~i~6_138 () Int)
(declare-fun main_~sum~6_138 () Int)
(declare-fun main_~i~6_140 () Int)
(declare-fun main_~sum~6_140 () Int)
(declare-fun main_~i~6_142 () Int)
(declare-fun main_~sum~6_142 () Int)
(declare-fun |__VERIFIER_assert_#in~cond_145| () Int)
(declare-fun __VERIFIER_assert_~cond_146 () Int)
(assert true)
(assert (not false))
(assert true)
(assert true)
(assert true)
(assert true)
(assert true)
(assert true)
(assert true)
(assert true)
(assert (<= main_~n~6_4 |main_#t~nondet1_3|))
(assert (>= main_~n~6_4 |main_#t~nondet1_3|))
(assert (<= 1 main_~n~6_4))
(assert (<= main_~n~6_4 1000))
(assert (<= main_~sum~6_4 0))
(assert (>= main_~sum~6_4 0))
(assert (<= main_~i~6_4 1))
(assert (>= main_~i~6_4 1))
(assert true)
(assert (<= main_~i~6_6 (+ main_~i~6_4 1)))
(assert (>= main_~i~6_6 (+ main_~i~6_4 1)))
(assert (<= main_~i~6_4 main_~n~6_4))
(assert (<= main_~sum~6_6 (+ main_~sum~6_4 main_~i~6_4)))
(assert (>= main_~sum~6_6 (+ main_~sum~6_4 main_~i~6_4)))
(assert true)
(assert (<= main_~i~6_8 (+ main_~i~6_6 1)))
(assert (>= main_~i~6_8 (+ main_~i~6_6 1)))
(assert (<= main_~i~6_6 main_~n~6_4))
(assert (<= main_~sum~6_8 (+ main_~sum~6_6 main_~i~6_6)))
(assert (>= main_~sum~6_8 (+ main_~sum~6_6 main_~i~6_6)))
(assert true)
(assert (<= main_~i~6_10 (+ main_~i~6_8 1)))
(assert (>= main_~i~6_10 (+ main_~i~6_8 1)))
(assert (<= main_~i~6_8 main_~n~6_4))
(assert (<= main_~sum~6_10 (+ main_~sum~6_8 main_~i~6_8)))
(assert (>= main_~sum~6_10 (+ main_~sum~6_8 main_~i~6_8)))
(assert true)
(assert (<= main_~i~6_12 (+ main_~i~6_10 1)))
(assert (>= main_~i~6_12 (+ main_~i~6_10 1)))
(assert (<= main_~i~6_10 main_~n~6_4))
(assert (<= main_~sum~6_12 (+ main_~sum~6_10 main_~i~6_10)))
(assert (>= main_~sum~6_12 (+ main_~sum~6_10 main_~i~6_10)))
(assert true)
(assert (<= main_~i~6_14 (+ main_~i~6_12 1)))
(assert (>= main_~i~6_14 (+ main_~i~6_12 1)))
(assert (<= main_~i~6_12 main_~n~6_4))
(assert (<= main_~sum~6_14 (+ main_~sum~6_12 main_~i~6_12)))
(assert (>= main_~sum~6_14 (+ main_~sum~6_12 main_~i~6_12)))
(assert true)
(assert (<= main_~i~6_16 (+ main_~i~6_14 1)))
(assert (>= main_~i~6_16 (+ main_~i~6_14 1)))
(assert (<= main_~i~6_14 main_~n~6_4))
(assert (<= main_~sum~6_16 (+ main_~sum~6_14 main_~i~6_14)))
(assert (>= main_~sum~6_16 (+ main_~sum~6_14 main_~i~6_14)))
(assert true)
(assert (<= main_~i~6_18 (+ main_~i~6_16 1)))
(assert (>= main_~i~6_18 (+ main_~i~6_16 1)))
(assert (<= main_~i~6_16 main_~n~6_4))
(assert (<= main_~sum~6_18 (+ main_~sum~6_16 main_~i~6_16)))
(assert (>= main_~sum~6_18 (+ main_~sum~6_16 main_~i~6_16)))
(assert true)
(assert (<= main_~i~6_20 (+ main_~i~6_18 1)))
(assert (>= main_~i~6_20 (+ main_~i~6_18 1)))
(assert (<= main_~i~6_18 main_~n~6_4))
(assert (<= main_~sum~6_20 (+ main_~sum~6_18 main_~i~6_18)))
(assert (>= main_~sum~6_20 (+ main_~sum~6_18 main_~i~6_18)))
(assert true)
(assert (<= main_~i~6_22 (+ main_~i~6_20 1)))
(assert (>= main_~i~6_22 (+ main_~i~6_20 1)))
(assert (<= main_~i~6_20 main_~n~6_4))
(assert (<= main_~sum~6_22 (+ main_~sum~6_20 main_~i~6_20)))
(assert (>= main_~sum~6_22 (+ main_~sum~6_20 main_~i~6_20)))
(assert true)
(assert (<= main_~i~6_24 (+ main_~i~6_22 1)))
(assert (>= main_~i~6_24 (+ main_~i~6_22 1)))
(assert (<= main_~i~6_22 main_~n~6_4))
(assert (<= main_~sum~6_24 (+ main_~sum~6_22 main_~i~6_22)))
(assert (>= main_~sum~6_24 (+ main_~sum~6_22 main_~i~6_22)))
(assert true)
(assert (<= main_~i~6_26 (+ main_~i~6_24 1)))
(assert (>= main_~i~6_26 (+ main_~i~6_24 1)))
(assert (<= main_~i~6_24 main_~n~6_4))
(assert (<= main_~sum~6_26 (+ main_~sum~6_24 main_~i~6_24)))
(assert (>= main_~sum~6_26 (+ main_~sum~6_24 main_~i~6_24)))
(assert true)
(assert (<= main_~i~6_28 (+ main_~i~6_26 1)))
(assert (>= main_~i~6_28 (+ main_~i~6_26 1)))
(assert (<= main_~i~6_26 main_~n~6_4))
(assert (<= main_~sum~6_28 (+ main_~sum~6_26 main_~i~6_26)))
(assert (>= main_~sum~6_28 (+ main_~sum~6_26 main_~i~6_26)))
(assert true)
(assert (<= main_~i~6_30 (+ main_~i~6_28 1)))
(assert (>= main_~i~6_30 (+ main_~i~6_28 1)))
(assert (<= main_~i~6_28 main_~n~6_4))
(assert (<= main_~sum~6_30 (+ main_~sum~6_28 main_~i~6_28)))
(assert (>= main_~sum~6_30 (+ main_~sum~6_28 main_~i~6_28)))
(assert true)
(assert (<= main_~i~6_32 (+ main_~i~6_30 1)))
(assert (>= main_~i~6_32 (+ main_~i~6_30 1)))
(assert (<= main_~i~6_30 main_~n~6_4))
(assert (<= main_~sum~6_32 (+ main_~sum~6_30 main_~i~6_30)))
(assert (>= main_~sum~6_32 (+ main_~sum~6_30 main_~i~6_30)))
(assert true)
(assert (<= main_~i~6_34 (+ main_~i~6_32 1)))
(assert (>= main_~i~6_34 (+ main_~i~6_32 1)))
(assert (<= main_~i~6_32 main_~n~6_4))
(assert (<= main_~sum~6_34 (+ main_~sum~6_32 main_~i~6_32)))
(assert (>= main_~sum~6_34 (+ main_~sum~6_32 main_~i~6_32)))
(assert true)
(assert (<= main_~i~6_36 (+ main_~i~6_34 1)))
(assert (>= main_~i~6_36 (+ main_~i~6_34 1)))
(assert (<= main_~i~6_34 main_~n~6_4))
(assert (<= main_~sum~6_36 (+ main_~sum~6_34 main_~i~6_34)))
(assert (>= main_~sum~6_36 (+ main_~sum~6_34 main_~i~6_34)))
(assert true)
(assert (<= main_~i~6_38 (+ main_~i~6_36 1)))
(assert (>= main_~i~6_38 (+ main_~i~6_36 1)))
(assert (<= main_~i~6_36 main_~n~6_4))
(assert (<= main_~sum~6_38 (+ main_~sum~6_36 main_~i~6_36)))
(assert (>= main_~sum~6_38 (+ main_~sum~6_36 main_~i~6_36)))
(assert true)
(assert (<= main_~i~6_40 (+ main_~i~6_38 1)))
(assert (>= main_~i~6_40 (+ main_~i~6_38 1)))
(assert (<= main_~i~6_38 main_~n~6_4))
(assert (<= main_~sum~6_40 (+ main_~sum~6_38 main_~i~6_38)))
(assert (>= main_~sum~6_40 (+ main_~sum~6_38 main_~i~6_38)))
(assert true)
(assert (<= main_~i~6_42 (+ main_~i~6_40 1)))
(assert (>= main_~i~6_42 (+ main_~i~6_40 1)))
(assert (<= main_~i~6_40 main_~n~6_4))
(assert (<= main_~sum~6_42 (+ main_~sum~6_40 main_~i~6_40)))
(assert (>= main_~sum~6_42 (+ main_~sum~6_40 main_~i~6_40)))
(assert true)
(assert (<= main_~i~6_44 (+ main_~i~6_42 1)))
(assert (>= main_~i~6_44 (+ main_~i~6_42 1)))
(assert (<= main_~i~6_42 main_~n~6_4))
(assert (<= main_~sum~6_44 (+ main_~sum~6_42 main_~i~6_42)))
(assert (>= main_~sum~6_44 (+ main_~sum~6_42 main_~i~6_42)))
(assert true)
(assert (<= main_~i~6_46 (+ main_~i~6_44 1)))
(assert (>= main_~i~6_46 (+ main_~i~6_44 1)))
(assert (<= main_~i~6_44 main_~n~6_4))
(assert (<= main_~sum~6_46 (+ main_~sum~6_44 main_~i~6_44)))
(assert (>= main_~sum~6_46 (+ main_~sum~6_44 main_~i~6_44)))
(assert true)
(assert (<= main_~i~6_48 (+ main_~i~6_46 1)))
(assert (>= main_~i~6_48 (+ main_~i~6_46 1)))
(assert (<= main_~i~6_46 main_~n~6_4))
(assert (<= main_~sum~6_48 (+ main_~sum~6_46 main_~i~6_46)))
(assert (>= main_~sum~6_48 (+ main_~sum~6_46 main_~i~6_46)))
(assert true)
(assert (<= main_~i~6_50 (+ main_~i~6_48 1)))
(assert (>= main_~i~6_50 (+ main_~i~6_48 1)))
(assert (<= main_~i~6_48 main_~n~6_4))
(assert (<= main_~sum~6_50 (+ main_~sum~6_48 main_~i~6_48)))
(assert (>= main_~sum~6_50 (+ main_~sum~6_48 main_~i~6_48)))
(assert true)
(assert (<= main_~i~6_52 (+ main_~i~6_50 1)))
(assert (>= main_~i~6_52 (+ main_~i~6_50 1)))
(assert (<= main_~i~6_50 main_~n~6_4))
(assert (<= main_~sum~6_52 (+ main_~sum~6_50 main_~i~6_50)))
(assert (>= main_~sum~6_52 (+ main_~sum~6_50 main_~i~6_50)))
(assert true)
(assert (<= main_~i~6_54 (+ main_~i~6_52 1)))
(assert (>= main_~i~6_54 (+ main_~i~6_52 1)))
(assert (<= main_~i~6_52 main_~n~6_4))
(assert (<= main_~sum~6_54 (+ main_~sum~6_52 main_~i~6_52)))
(assert (>= main_~sum~6_54 (+ main_~sum~6_52 main_~i~6_52)))
(assert true)
(assert (<= main_~i~6_56 (+ main_~i~6_54 1)))
(assert (>= main_~i~6_56 (+ main_~i~6_54 1)))
(assert (<= main_~i~6_54 main_~n~6_4))
(assert (<= main_~sum~6_56 (+ main_~sum~6_54 main_~i~6_54)))
(assert (>= main_~sum~6_56 (+ main_~sum~6_54 main_~i~6_54)))
(assert true)
(assert (<= main_~i~6_58 (+ main_~i~6_56 1)))
(assert (>= main_~i~6_58 (+ main_~i~6_56 1)))
(assert (<= main_~i~6_56 main_~n~6_4))
(assert (<= main_~sum~6_58 (+ main_~sum~6_56 main_~i~6_56)))
(assert (>= main_~sum~6_58 (+ main_~sum~6_56 main_~i~6_56)))
(assert true)
(assert (<= main_~i~6_60 (+ main_~i~6_58 1)))
(assert (>= main_~i~6_60 (+ main_~i~6_58 1)))
(assert (<= main_~i~6_58 main_~n~6_4))
(assert (<= main_~sum~6_60 (+ main_~sum~6_58 main_~i~6_58)))
(assert (>= main_~sum~6_60 (+ main_~sum~6_58 main_~i~6_58)))
(assert true)
(assert (<= main_~i~6_62 (+ main_~i~6_60 1)))
(assert (>= main_~i~6_62 (+ main_~i~6_60 1)))
(assert (<= main_~i~6_60 main_~n~6_4))
(assert (<= main_~sum~6_62 (+ main_~sum~6_60 main_~i~6_60)))
(assert (>= main_~sum~6_62 (+ main_~sum~6_60 main_~i~6_60)))
(assert true)
(assert (<= main_~i~6_64 (+ main_~i~6_62 1)))
(assert (>= main_~i~6_64 (+ main_~i~6_62 1)))
(assert (<= main_~i~6_62 main_~n~6_4))
(assert (<= main_~sum~6_64 (+ main_~sum~6_62 main_~i~6_62)))
(assert (>= main_~sum~6_64 (+ main_~sum~6_62 main_~i~6_62)))
(assert true)
(assert (<= main_~i~6_66 (+ main_~i~6_64 1)))
(assert (>= main_~i~6_66 (+ main_~i~6_64 1)))
(assert (<= main_~i~6_64 main_~n~6_4))
(assert (<= main_~sum~6_66 (+ main_~sum~6_64 main_~i~6_64)))
(assert (>= main_~sum~6_66 (+ main_~sum~6_64 main_~i~6_64)))
(assert true)
(assert (<= main_~i~6_68 (+ main_~i~6_66 1)))
(assert (>= main_~i~6_68 (+ main_~i~6_66 1)))
(assert (<= main_~i~6_66 main_~n~6_4))
(assert (<= main_~sum~6_68 (+ main_~sum~6_66 main_~i~6_66)))
(assert (>= main_~sum~6_68 (+ main_~sum~6_66 main_~i~6_66)))
(assert true)
(assert (<= main_~i~6_70 (+ main_~i~6_68 1)))
(assert (>= main_~i~6_70 (+ main_~i~6_68 1)))
(assert (<= main_~i~6_68 main_~n~6_4))
(assert (<= main_~sum~6_70 (+ main_~sum~6_68 main_~i~6_68)))
(assert (>= main_~sum~6_70 (+ main_~sum~6_68 main_~i~6_68)))
(assert true)
(assert (<= main_~i~6_72 (+ main_~i~6_70 1)))
(assert (>= main_~i~6_72 (+ main_~i~6_70 1)))
(assert (<= main_~i~6_70 main_~n~6_4))
(assert (<= main_~sum~6_72 (+ main_~sum~6_70 main_~i~6_70)))
(assert (>= main_~sum~6_72 (+ main_~sum~6_70 main_~i~6_70)))
(assert true)
(assert (<= main_~i~6_74 (+ main_~i~6_72 1)))
(assert (>= main_~i~6_74 (+ main_~i~6_72 1)))
(assert (<= main_~i~6_72 main_~n~6_4))
(assert (<= main_~sum~6_74 (+ main_~sum~6_72 main_~i~6_72)))
(assert (>= main_~sum~6_74 (+ main_~sum~6_72 main_~i~6_72)))
(assert true)
(assert (<= main_~i~6_76 (+ main_~i~6_74 1)))
(assert (>= main_~i~6_76 (+ main_~i~6_74 1)))
(assert (<= main_~i~6_74 main_~n~6_4))
(assert (<= main_~sum~6_76 (+ main_~sum~6_74 main_~i~6_74)))
(assert (>= main_~sum~6_76 (+ main_~sum~6_74 main_~i~6_74)))
(assert true)
(assert (<= main_~i~6_78 (+ main_~i~6_76 1)))
(assert (>= main_~i~6_78 (+ main_~i~6_76 1)))
(assert (<= main_~i~6_76 main_~n~6_4))
(assert (<= main_~sum~6_78 (+ main_~sum~6_76 main_~i~6_76)))
(assert (>= main_~sum~6_78 (+ main_~sum~6_76 main_~i~6_76)))
(assert true)
(assert (<= main_~i~6_80 (+ main_~i~6_78 1)))
(assert (>= main_~i~6_80 (+ main_~i~6_78 1)))
(assert (<= main_~i~6_78 main_~n~6_4))
(assert (<= main_~sum~6_80 (+ main_~sum~6_78 main_~i~6_78)))
(assert (>= main_~sum~6_80 (+ main_~sum~6_78 main_~i~6_78)))
(assert true)
(assert (<= main_~i~6_82 (+ main_~i~6_80 1)))
(assert (>= main_~i~6_82 (+ main_~i~6_80 1)))
(assert (<= main_~i~6_80 main_~n~6_4))
(assert (<= main_~sum~6_82 (+ main_~sum~6_80 main_~i~6_80)))
(assert (>= main_~sum~6_82 (+ main_~sum~6_80 main_~i~6_80)))
(assert true)
(assert (<= main_~i~6_84 (+ main_~i~6_82 1)))
(assert (>= main_~i~6_84 (+ main_~i~6_82 1)))
(assert (<= main_~i~6_82 main_~n~6_4))
(assert (<= main_~sum~6_84 (+ main_~sum~6_82 main_~i~6_82)))
(assert (>= main_~sum~6_84 (+ main_~sum~6_82 main_~i~6_82)))
(assert true)
(assert (<= main_~i~6_86 (+ main_~i~6_84 1)))
(assert (>= main_~i~6_86 (+ main_~i~6_84 1)))
(assert (<= main_~i~6_84 main_~n~6_4))
(assert (<= main_~sum~6_86 (+ main_~sum~6_84 main_~i~6_84)))
(assert (>= main_~sum~6_86 (+ main_~sum~6_84 main_~i~6_84)))
(assert true)
(assert (<= main_~i~6_88 (+ main_~i~6_86 1)))
(assert (>= main_~i~6_88 (+ main_~i~6_86 1)))
(assert (<= main_~i~6_86 main_~n~6_4))
(assert (<= main_~sum~6_88 (+ main_~sum~6_86 main_~i~6_86)))
(assert (>= main_~sum~6_88 (+ main_~sum~6_86 main_~i~6_86)))
(assert true)
(assert (<= main_~i~6_90 (+ main_~i~6_88 1)))
(assert (>= main_~i~6_90 (+ main_~i~6_88 1)))
(assert (<= main_~i~6_88 main_~n~6_4))
(assert (<= main_~sum~6_90 (+ main_~sum~6_88 main_~i~6_88)))
(assert (>= main_~sum~6_90 (+ main_~sum~6_88 main_~i~6_88)))
(assert true)
(assert (<= main_~i~6_92 (+ main_~i~6_90 1)))
(assert (>= main_~i~6_92 (+ main_~i~6_90 1)))
(assert (<= main_~i~6_90 main_~n~6_4))
(assert (<= main_~sum~6_92 (+ main_~sum~6_90 main_~i~6_90)))
(assert (>= main_~sum~6_92 (+ main_~sum~6_90 main_~i~6_90)))
(assert true)
(assert (<= main_~i~6_94 (+ main_~i~6_92 1)))
(assert (>= main_~i~6_94 (+ main_~i~6_92 1)))
(assert (<= main_~i~6_92 main_~n~6_4))
(assert (<= main_~sum~6_94 (+ main_~sum~6_92 main_~i~6_92)))
(assert (>= main_~sum~6_94 (+ main_~sum~6_92 main_~i~6_92)))
(assert true)
(assert (<= main_~i~6_96 (+ main_~i~6_94 1)))
(assert (>= main_~i~6_96 (+ main_~i~6_94 1)))
(assert (<= main_~i~6_94 main_~n~6_4))
(assert (<= main_~sum~6_96 (+ main_~sum~6_94 main_~i~6_94)))
(assert (>= main_~sum~6_96 (+ main_~sum~6_94 main_~i~6_94)))
(assert true)
(assert (<= main_~i~6_98 (+ main_~i~6_96 1)))
(assert (>= main_~i~6_98 (+ main_~i~6_96 1)))
(assert (<= main_~i~6_96 main_~n~6_4))
(assert (<= main_~sum~6_98 (+ main_~sum~6_96 main_~i~6_96)))
(assert (>= main_~sum~6_98 (+ main_~sum~6_96 main_~i~6_96)))
(assert true)
(assert (<= main_~i~6_100 (+ main_~i~6_98 1)))
(assert (>= main_~i~6_100 (+ main_~i~6_98 1)))
(assert (<= main_~i~6_98 main_~n~6_4))
(assert (<= main_~sum~6_100 (+ main_~sum~6_98 main_~i~6_98)))
(assert (>= main_~sum~6_100 (+ main_~sum~6_98 main_~i~6_98)))
(assert true)
(assert (<= main_~i~6_102 (+ main_~i~6_100 1)))
(assert (>= main_~i~6_102 (+ main_~i~6_100 1)))
(assert (<= main_~i~6_100 main_~n~6_4))
(assert (<= main_~sum~6_102 (+ main_~sum~6_100 main_~i~6_100)))
(assert (>= main_~sum~6_102 (+ main_~sum~6_100 main_~i~6_100)))
(assert true)
(assert (<= main_~i~6_104 (+ main_~i~6_102 1)))
(assert (>= main_~i~6_104 (+ main_~i~6_102 1)))
(assert (<= main_~i~6_102 main_~n~6_4))
(assert (<= main_~sum~6_104 (+ main_~sum~6_102 main_~i~6_102)))
(assert (>= main_~sum~6_104 (+ main_~sum~6_102 main_~i~6_102)))
(assert true)
(assert (<= main_~i~6_106 (+ main_~i~6_104 1)))
(assert (>= main_~i~6_106 (+ main_~i~6_104 1)))
(assert (<= main_~i~6_104 main_~n~6_4))
(assert (<= main_~sum~6_106 (+ main_~sum~6_104 main_~i~6_104)))
(assert (>= main_~sum~6_106 (+ main_~sum~6_104 main_~i~6_104)))
(assert true)
(assert (<= main_~i~6_108 (+ main_~i~6_106 1)))
(assert (>= main_~i~6_108 (+ main_~i~6_106 1)))
(assert (<= main_~i~6_106 main_~n~6_4))
(assert (<= main_~sum~6_108 (+ main_~sum~6_106 main_~i~6_106)))
(assert (>= main_~sum~6_108 (+ main_~sum~6_106 main_~i~6_106)))
(assert true)
(assert (<= main_~i~6_110 (+ main_~i~6_108 1)))
(assert (>= main_~i~6_110 (+ main_~i~6_108 1)))
(assert (<= main_~i~6_108 main_~n~6_4))
(assert (<= main_~sum~6_110 (+ main_~sum~6_108 main_~i~6_108)))
(assert (>= main_~sum~6_110 (+ main_~sum~6_108 main_~i~6_108)))
(assert true)
(assert (<= main_~i~6_112 (+ main_~i~6_110 1)))
(assert (>= main_~i~6_112 (+ main_~i~6_110 1)))
(assert (<= main_~i~6_110 main_~n~6_4))
(assert (<= main_~sum~6_112 (+ main_~sum~6_110 main_~i~6_110)))
(assert (>= main_~sum~6_112 (+ main_~sum~6_110 main_~i~6_110)))
(assert true)
(assert (<= main_~i~6_114 (+ main_~i~6_112 1)))
(assert (>= main_~i~6_114 (+ main_~i~6_112 1)))
(assert (<= main_~i~6_112 main_~n~6_4))
(assert (<= main_~sum~6_114 (+ main_~sum~6_112 main_~i~6_112)))
(assert (>= main_~sum~6_114 (+ main_~sum~6_112 main_~i~6_112)))
(assert true)
(assert (<= main_~i~6_116 (+ main_~i~6_114 1)))
(assert (>= main_~i~6_116 (+ main_~i~6_114 1)))
(assert (<= main_~i~6_114 main_~n~6_4))
(assert (<= main_~sum~6_116 (+ main_~sum~6_114 main_~i~6_114)))
(assert (>= main_~sum~6_116 (+ main_~sum~6_114 main_~i~6_114)))
(assert true)
(assert (<= main_~i~6_118 (+ main_~i~6_116 1)))
(assert (>= main_~i~6_118 (+ main_~i~6_116 1)))
(assert (<= main_~i~6_116 main_~n~6_4))
(assert (<= main_~sum~6_118 (+ main_~sum~6_116 main_~i~6_116)))
(assert (>= main_~sum~6_118 (+ main_~sum~6_116 main_~i~6_116)))
(assert true)
(assert (<= main_~i~6_120 (+ main_~i~6_118 1)))
(assert (>= main_~i~6_120 (+ main_~i~6_118 1)))
(assert (<= main_~i~6_118 main_~n~6_4))
(assert (<= main_~sum~6_120 (+ main_~sum~6_118 main_~i~6_118)))
(assert (>= main_~sum~6_120 (+ main_~sum~6_118 main_~i~6_118)))
(assert true)
(assert (<= main_~i~6_122 (+ main_~i~6_120 1)))
(assert (>= main_~i~6_122 (+ main_~i~6_120 1)))
(assert (<= main_~i~6_120 main_~n~6_4))
(assert (<= main_~sum~6_122 (+ main_~sum~6_120 main_~i~6_120)))
(assert (>= main_~sum~6_122 (+ main_~sum~6_120 main_~i~6_120)))
(assert true)
(assert (<= main_~i~6_124 (+ main_~i~6_122 1)))
(assert (>= main_~i~6_124 (+ main_~i~6_122 1)))
(assert (<= main_~i~6_122 main_~n~6_4))
(assert (<= main_~sum~6_124 (+ main_~sum~6_122 main_~i~6_122)))
(assert (>= main_~sum~6_124 (+ main_~sum~6_122 main_~i~6_122)))
(assert true)
(assert (<= main_~i~6_126 (+ main_~i~6_124 1)))
(assert (>= main_~i~6_126 (+ main_~i~6_124 1)))
(assert (<= main_~i~6_124 main_~n~6_4))
(assert (<= main_~sum~6_126 (+ main_~sum~6_124 main_~i~6_124)))
(assert (>= main_~sum~6_126 (+ main_~sum~6_124 main_~i~6_124)))
(assert true)
(assert (<= main_~i~6_128 (+ main_~i~6_126 1)))
(assert (>= main_~i~6_128 (+ main_~i~6_126 1)))
(assert (<= main_~i~6_126 main_~n~6_4))
(assert (<= main_~sum~6_128 (+ main_~sum~6_126 main_~i~6_126)))
(assert (>= main_~sum~6_128 (+ main_~sum~6_126 main_~i~6_126)))
(assert true)
(assert (<= main_~i~6_130 (+ main_~i~6_128 1)))
(assert (>= main_~i~6_130 (+ main_~i~6_128 1)))
(assert (<= main_~i~6_128 main_~n~6_4))
(assert (<= main_~sum~6_130 (+ main_~sum~6_128 main_~i~6_128)))
(assert (>= main_~sum~6_130 (+ main_~sum~6_128 main_~i~6_128)))
(assert true)
(assert (<= main_~i~6_132 (+ main_~i~6_130 1)))
(assert (>= main_~i~6_132 (+ main_~i~6_130 1)))
(assert (<= main_~i~6_130 main_~n~6_4))
(assert (<= main_~sum~6_132 (+ main_~sum~6_130 main_~i~6_130)))
(assert (>= main_~sum~6_132 (+ main_~sum~6_130 main_~i~6_130)))
(assert true)
(assert (<= main_~i~6_134 (+ main_~i~6_132 1)))
(assert (>= main_~i~6_134 (+ main_~i~6_132 1)))
(assert (<= main_~i~6_132 main_~n~6_4))
(assert (<= main_~sum~6_134 (+ main_~sum~6_132 main_~i~6_132)))
(assert (>= main_~sum~6_134 (+ main_~sum~6_132 main_~i~6_132)))
(assert true)
(assert (<= main_~i~6_136 (+ main_~i~6_134 1)))
(assert (>= main_~i~6_136 (+ main_~i~6_134 1)))
(assert (<= main_~i~6_134 main_~n~6_4))
(assert (<= main_~sum~6_136 (+ main_~sum~6_134 main_~i~6_134)))
(assert (>= main_~sum~6_136 (+ main_~sum~6_134 main_~i~6_134)))
(assert true)
(assert (<= main_~i~6_138 (+ main_~i~6_136 1)))
(assert (>= main_~i~6_138 (+ main_~i~6_136 1)))
(assert (<= main_~i~6_136 main_~n~6_4))
(assert (<= main_~sum~6_138 (+ main_~sum~6_136 main_~i~6_136)))
(assert (>= main_~sum~6_138 (+ main_~sum~6_136 main_~i~6_136)))
(assert true)
(assert (<= main_~i~6_140 (+ main_~i~6_138 1)))
(assert (>= main_~i~6_140 (+ main_~i~6_138 1)))
(assert (<= main_~i~6_138 main_~n~6_4))
(assert (<= main_~sum~6_140 (+ main_~sum~6_138 main_~i~6_138)))
(assert (>= main_~sum~6_140 (+ main_~sum~6_138 main_~i~6_138)))
(assert true)
(assert (<= main_~i~6_142 (+ main_~i~6_140 1)))
(assert (>= main_~i~6_142 (+ main_~i~6_140 1)))
(assert (<= main_~i~6_140 main_~n~6_4))
(assert (<= main_~sum~6_142 (+ main_~sum~6_140 main_~i~6_140)))
(assert (>= main_~sum~6_142 (+ main_~sum~6_140 main_~i~6_140)))
(assert true)
(assert (not (<= main_~i~6_142 main_~n~6_4)))
(assert true)
(assert
 (<= |__VERIFIER_assert_#in~cond_145|
 (ite (= (* 2 main_~sum~6_142) (* main_~n~6_4 (+ main_~n~6_4 1))) 1 0)))
(assert
 (>= |__VERIFIER_assert_#in~cond_145|
 (ite (= (* 2 main_~sum~6_142) (* main_~n~6_4 (+ main_~n~6_4 1))) 1 0)))
(assert true)
(assert (<= __VERIFIER_assert_~cond_146 |__VERIFIER_assert_#in~cond_145|))
(assert (>= __VERIFIER_assert_~cond_146 |__VERIFIER_assert_#in~cond_145|))
(assert (<= __VERIFIER_assert_~cond_146 0))
(assert (>= __VERIFIER_assert_~cond_146 0))
(assert true)
(check-sat)
(exit)

